\ Model Routes
\ LP format - for model browsing. Use MPS format to capture full model detail.
Maximize
  - 191.7153353028244 R{0,0} + 210.7736552982703 R{0,1}
   + 210.7736552982703 R{0,2} - 249.2301939667805 R{0,3}
   - 223.5191598158195 R{0,4} + 424.9752428658231 R{0,5}
   + 424.9752428658231 R{0,6} + 555.2206589282839 R{0,7}
   + 155.7970287393723 R{0,8} + 281.9883365781351 R{0,9}
   + 2060.89306049373 R{0,10} - 311.6453010474499 R{0,11}
   + 2368.090089254269 R{0,12} + 36.6435601781551 R{0,13}
   + 2015.908104240575 R{0,14} + 363.4250616761001 R{0,15}
   + 406.557100146225 R{0,16} - 256.140831891889 R{1,0}
   + 41.44651618699046 R{1,1} + 468.947430945026 R{1,2}
   + 79.23743184435932 R{1,3} + 90.95799008240454 R{1,4}
   + 90.95799008240454 R{1,5} + 113.7746129438224 R{1,6}
   + 471.9868912082864 R{1,7} + 471.9868912082864 R{1,8}
   + 786.4502483187185 R{2,0} + 786.4502483187185 R{2,1}
   - 278.4443928850388 R{2,2} + 96.64804243541232 R{2,3}
   + 1554.55142910273 R{2,4} + 1067.410356551626 R{2,5}
   + 1067.410356551626 R{2,6} + 892.6424592665308 R{2,7}
   + 420.034065802254 R{2,8} + 977.0668260252821 R{2,9}
   + 493.9561288318398 R{2,10} - 260.2482995389823 R{3,0}
   + 701.3067653295128 R{3,1} + 1230.485940651614 R{3,2}
   + 417.5497857600096 R{3,3} + 611.0826098255354 R{3,4}
   + 651.6647736561463 R{3,5} + 1244.342151332653 R{3,6}
   + 1113.414646745748 R{3,7} + 464.1366692507751 R{3,8}
   + 507.6688123284221 R{3,9} - 242.5208875955131 R{4,0}
   + 900.3843124958082 R{4,1} + 1216.961895582121 R{4,2}
   + 481.2690687317004 R{4,3} + 938.9474018673914 R{4,4}
   + 495.6499967177203 R{4,5} + 1482.782523551872 R{4,6}
   + 1397.98190777551 R{4,7} + 1092.479767053384 R{4,8}
   + 1899.878927149828 R{4,9} + 1200.463996547703 R{4,10}
   + 873.8514723344406 R{4,11} + 991.9075722476357 R{4,12}
   + 329.1235468612163 R{4,13} - 231.9775664337766 R{5,0}
   + 357.5804114360171 R{5,1} + 942.0446328252956 R{5,2}
   + 987.1418765680701 R{5,3} + 211.3368448701643 R{5,4}
   + 1188.367592179457 R{5,5} + 514.1129977374426 R{5,6}
   + 987.1418765680701 R{5,7} - 231.1436095783099 R{6,0}
   + 839.5257989100787 R{6,1} + 943.9914650224805 R{6,2}
   + 1459.583048938017 R{6,3} + 1061.742918795672 R{6,4}
   + 1026.974018198098 R{6,5} + 1117.137854192024 R{6,6}
   + 1212.186915770675 R{6,7} + 1128.127927981229 R{6,8}
   + 1133.852129977422 R{6,9} + 1262.90851249901 R{6,10}
   + 1017.658623618618 R{6,11} + 1033.488810369842 R{6,12}
   + 1054.632581131167 R{6,13} + 1033.488810369842 R{6,14}
Subject To
 R00: R{0,0} <= 1
 R01: R{0,1} <= 1
 R02: R{0,2} <= 1
 R03: R{0,3} <= 1
 R04: R{0,4} <= 1
 R05: R{0,5} <= 1
 R06: R{0,6} <= 1
 R07: R{0,7} <= 1
 R08: R{0,8} <= 1
 R09: R{0,9} <= 1
 R010: R{0,10} <= 1
 R011: R{0,11} <= 1
 R012: R{0,12} <= 1
 R013: R{0,13} <= 1
 R014: R{0,14} <= 1
 R015: R{0,15} <= 1
 R016: R{0,16} <= 1
 R017: R{1,0} <= 1
 R018: R{1,1} <= 1
 R019: R{1,2} <= 1
 R020: R{1,3} <= 1
 R021: R{1,4} <= 1
 R022: R{1,5} <= 1
 R023: R{1,6} <= 1
 R024: R{1,7} <= 1
 R025: R{1,8} <= 1
 R026: R{2,0} <= 1
 R027: R{2,1} <= 1
 R028: R{2,2} <= 1
 R029: R{2,3} <= 1
 R030: R{2,4} <= 1
 R031: R{2,5} <= 1
 R032: R{2,6} <= 1
 R033: R{2,7} <= 1
 R034: R{2,8} <= 1
 R035: R{2,9} <= 1
 R036: R{2,10} <= 1
 R037: R{3,0} <= 1
 R038: R{3,1} <= 1
 R039: R{3,2} <= 1
 R040: R{3,3} <= 1
 R041: R{3,4} <= 1
 R042: R{3,5} <= 1
 R043: R{3,6} <= 1
 R044: R{3,7} <= 1
 R045: R{3,8} <= 1
 R046: R{3,9} <= 1
 R047: R{4,0} <= 1
 R048: R{4,1} <= 1
 R049: R{4,2} <= 1
 R050: R{4,3} <= 1
 R051: R{4,4} <= 1
 R052: R{4,5} <= 1
 R053: R{4,6} <= 1
 R054: R{4,7} <= 1
 R055: R{4,8} <= 1
 R056: R{4,9} <= 1
 R057: R{4,10} <= 1
 R058: R{4,11} <= 1
 R059: R{4,12} <= 1
 R060: R{4,13} <= 1
 R061: R{5,0} <= 1
 R062: R{5,1} <= 1
 R063: R{5,2} <= 1
 R064: R{5,3} <= 1
 R065: R{5,4} <= 1
 R066: R{5,5} <= 1
 R067: R{5,6} <= 1
 R068: R{5,7} <= 1
 R069: R{6,0} <= 1
 R070: R{6,1} <= 1
 R071: R{6,2} <= 1
 R072: R{6,3} <= 1
 R073: R{6,4} <= 1
 R074: R{6,5} <= 1
 R075: R{6,6} <= 1
 R076: R{6,7} <= 1
 R077: R{6,8} <= 1
 R078: R{6,9} <= 1
 R079: R{6,10} <= 1
 R080: R{6,11} <= 1
 R081: R{6,12} <= 1
 R082: R{6,13} <= 1
 R083: R{6,14} <= 1
 R1_0: R{0,0} + R{0,1} + R{0,2} + R{0,3} + R{0,4} + R{0,5} + R{0,6}
   + R{0,7} + R{0,8} + R{0,9} + R{0,10} + R{0,11} + R{0,12} + R{0,13}
   + R{0,14} + R{0,15} + R{0,16} <= 1
 R1_1: R{1,0} + R{1,1} + R{1,2} + R{1,3} + R{1,4} + R{1,5} + R{1,6}
   + R{1,7} + R{1,8} <= 1
 R1_2: R{2,0} + R{2,1} + R{2,2} + R{2,3} + R{2,4} + R{2,5} + R{2,6}
   + R{2,7} + R{2,8} + R{2,9} + R{2,10} <= 1
 R1_3: R{3,0} + R{3,1} + R{3,2} + R{3,3} + R{3,4} + R{3,5} + R{3,6}
   + R{3,7} + R{3,8} + R{3,9} <= 1
 R1_4: R{4,0} + R{4,1} + R{4,2} + R{4,3} + R{4,4} + R{4,5} + R{4,6}
   + R{4,7} + R{4,8} + R{4,9} + R{4,10} + R{4,11} + R{4,12} + R{4,13} <= 1
 R1_5: R{5,0} + R{5,1} + R{5,2} + R{5,3} + R{5,4} + R{5,5} + R{5,6}
   + R{5,7} <= 1
 R1_6: R{6,0} + R{6,1} + R{6,2} + R{6,3} + R{6,4} + R{6,5} + R{6,6}
   + R{6,7} + R{6,8} + R{6,9} + R{6,10} + R{6,11} + R{6,12} + R{6,13}
   + R{6,14} <= 1
 R2_0: <= 0
 R2_1: 10 R{2,9} + 10 R{3,1} + 10 R{3,2} + 10 R{3,5} + 10 R{3,7}
   + 10 R{3,8} + 10 R{3,9} <= 10
 R2_2: <= 0
 R2_3: 4 R{0,4} + 4 R{0,5} + 4 R{0,6} + 4 R{1,6} + 4 R{1,7} + 4 R{1,8}
   + 4 R{2,9} + 4 R{6,2} + 4 R{6,3} + 4 R{6,6} + 4 R{6,7} + 4 R{6,10}
   + 4 R{6,11} <= 4
 R2_4: <= 0
 R2_5: 5 R{0,4} + 5 R{0,5} + 5 R{0,6} + 5 R{5,6} <= 5
 R2_6: 10 R{1,1} + 10 R{1,3} + 10 R{1,4} + 10 R{1,5} + 10 R{1,6}
   + 10 R{1,7} + 10 R{1,8} + 10 R{2,10} <= 10
 R2_7: 6 R{1,1} + 6 R{1,2} + 6 R{1,3} + 6 R{1,4} + 6 R{1,5} + 6 R{1,6}
   + 6 R{1,7} + 6 R{1,8} <= 6
 R2_8: <= 0
 R2_9: 12 R{4,1} + 12 R{4,2} + 12 R{4,3} + 12 R{4,4} + 12 R{4,5}
   + 12 R{4,7} + 12 R{4,8} + 12 R{4,9} + 12 R{4,10} + 12 R{4,11}
   + 12 R{4,12} + 12 R{4,13} <= 12
 R2_10: 8 R{0,7} + 8 R{4,6} + 8 R{6,1} + 8 R{6,2} + 8 R{6,3} + 8 R{6,4}
   + 8 R{6,6} + 8 R{6,7} + 8 R{6,13} <= 8
 R2_11: <= 0
 R2_12: <= 0
 R2_13: <= 0
 R2_14: <= 0
 R2_15: 11 R{0,0} + 11 R{0,1} + 11 R{0,2} + 11 R{0,9} + 11 R{4,1}
   + 11 R{4,2} + 11 R{4,4} + 11 R{4,5} <= 11
 R2_16: 5 R{0,16} <= 5
 R2_17: <= 0
 R2_18: 5 R{4,8} <= 5
 R2_19: 11 R{2,9} + 11 R{4,7} + 11 R{4,8} + 11 R{6,1} + 11 R{6,2}
   + 11 R{6,3} + 11 R{6,4} + 11 R{6,5} + 11 R{6,7} + 11 R{6,9} + 11 R{6,11}
   <= 11
 R2_20: 13 R{0,12} + 13 R{2,4} + 13 R{2,7} + 13 R{4,1} + 13 R{4,2}
   + 13 R{4,4} + 13 R{4,6} + 13 R{4,9} + 13 R{5,5} <= 13
 R2_21: <= 0
 R2_22: <= 0
 R2_23: 14 R{0,1} + 14 R{0,2} + 14 R{0,7} + 14 R{0,8} + 14 R{0,9}
   + 14 R{0,10} + 14 R{0,12} + 14 R{2,0} + 14 R{2,1} + 14 R{2,8} <= 14
 R2_24: 10 R{0,10} + 10 R{0,12} + 10 R{0,14} + 10 R{3,1} + 10 R{3,2}
   + 10 R{3,3} + 10 R{3,4} + 10 R{3,6} + 10 R{3,7} + 10 R{5,4} <= 10
 R2_25: <= 13
 R2_26: 6 R{0,10} + 6 R{0,14} + 6 R{2,4} + 6 R{2,5} + 6 R{2,6} + 6 R{2,7}
   + 6 R{5,1} + 6 R{5,2} + 6 R{5,3} + 6 R{5,4} + 6 R{5,6} + 6 R{5,7} <= 6
 R2_27: <= 5
 R2_28: <= 0
 R2_29: <= 0
 R2_30: <= 0
 R2_31: <= 0
 R2_32: 7 R{2,3} + 7 R{5,6} <= 7
 R2_33: 12 R{3,5} + 12 R{3,9} + 12 R{5,6} <= 12
 R2_34: 5 R{0,10} + 5 R{0,12} + 5 R{0,14} + 5 R{6,11} <= 5
 R2_35: 13 R{5,6} <= 13
 R2_36: <= 0
 R2_37: 5 R{3,1} + 5 R{3,2} + 5 R{3,3} + 5 R{3,4} + 5 R{3,5} + 5 R{3,6}
   + 5 R{3,8} + 5 R{3,9} <= 5
 R2_38: <= 0
 R2_39: <= 0
 R2_40: 15 R{2,3} + 15 R{2,4} + 15 R{2,5} + 15 R{2,6} + 15 R{2,7}
   + 15 R{2,9} + 15 R{2,10} <= 15
 R2_41: 5 R{0,10} + 5 R{0,12} + 5 R{0,14} + 5 R{4,6} + 5 R{6,4} + 5 R{6,5}
   + 5 R{6,7} <= 5
 R2_42: 4 R{2,3} <= 4
 R2_43: <= 0
 R2_44: <= 0
 R2_45: <= 0
 R2_46: 9 R{0,13} + 9 R{0,14} + 9 R{0,16} + 9 R{4,7} + 9 R{4,8} + 9 R{4,9}
   + 9 R{4,10} + 9 R{4,11} + 9 R{4,12} <= 9
 R2_47: 7 R{5,1} + 7 R{5,2} + 7 R{5,3} + 7 R{5,4} + 7 R{5,6} + 7 R{5,7}
   <= 7
 R2_48: 4 R{4,1} + 4 R{4,2} + 4 R{4,3} + 4 R{4,4} + 4 R{4,5} + 4 R{4,6}
   + 4 R{4,7} + 4 R{4,9} + 4 R{4,10} + 4 R{4,11} + 4 R{4,12} + 4 R{4,13}
   <= 4
 R2_49: <= 0
 R2_50: <= 0
 R2_51: 11 R{4,1} + 11 R{4,2} + 11 R{4,3} + 11 R{4,4} + 11 R{4,5}
   + 11 R{4,6} + 11 R{4,9} + 11 R{4,10} + 11 R{4,11} <= 11
 R2_52: <= 0
 R2_53: 13 R{4,1} + 13 R{4,3} + 13 R{4,4} + 13 R{4,5} + 13 R{4,11}
   + 13 R{4,13} <= 13
 R2_54: 9 R{3,1} + 9 R{3,2} + 9 R{3,3} + 9 R{3,5} + 9 R{3,6} + 9 R{3,7}
   + 9 R{3,8} <= 9
 R2_55: 8 R{6,1} + 8 R{6,2} + 8 R{6,3} + 8 R{6,4} + 8 R{6,5} + 8 R{6,6}
   + 8 R{6,7} + 8 R{6,8} + 8 R{6,10} + 8 R{6,11} + 8 R{6,12} + 8 R{6,13}
   + 8 R{6,14} <= 8
 R2_56: 6 R{0,7} + 6 R{2,0} + 6 R{2,1} + 6 R{4,2} + 6 R{4,6} + 6 R{4,7}
   + 6 R{4,8} + 6 R{4,9} + 6 R{4,10} + 6 R{4,12} <= 6
 R2_57: <= 0
 R2_58: <= 0
 R2_59: 10 R{0,10} + 10 R{0,12} + 10 R{0,14} + 10 R{1,7} + 10 R{1,8}
   + 10 R{4,9} + 10 R{4,10} + 10 R{6,8} + 10 R{6,9} + 10 R{6,10}
   + 10 R{6,12} + 10 R{6,14} <= 10
 R2_60: <= 0
 R2_61: 9 R{0,10} + 9 R{0,12} + 9 R{0,14} + 9 R{2,8} <= 9
 R2_62: <= 0
 R2_63: <= 0
 R2_64: <= 0
 R2_65: 5 R{2,0} + 5 R{2,1} + 5 R{6,1} + 5 R{6,2} + 5 R{6,3} + 5 R{6,6}
   + 5 R{6,7} + 5 R{6,10} + 5 R{6,11} + 5 R{6,13} <= 5
 R2_66: 7 R{6,1} + 7 R{6,2} + 7 R{6,4} + 7 R{6,5} + 7 R{6,7} + 7 R{6,11}
   <= 7
 R2_67: <= 3
 R2_68: 6 R{6,1} + 6 R{6,2} + 6 R{6,3} + 6 R{6,4} + 6 R{6,5} + 6 R{6,6}
   + 6 R{6,7} + 6 R{6,8} + 6 R{6,10} + 6 R{6,11} + 6 R{6,12} + 6 R{6,13}
   + 6 R{6,14} <= 6
 R2_69: 7 R{0,10} + 7 R{0,12} + 7 R{0,14} + 7 R{4,1} + 7 R{4,2} + 7 R{4,3}
   + 7 R{4,4} + 7 R{4,5} + 7 R{4,6} + 7 R{4,7} + 7 R{4,9} + 7 R{4,11}
   + 7 R{4,12} + 7 R{4,13} <= 7
 R2_70: 11 R{1,1} + 11 R{1,2} + 11 R{1,4} + 11 R{1,5} + 11 R{1,6}
   + 11 R{1,7} + 11 R{1,8} <= 11
 R2_71: 7 R{3,1} + 7 R{3,3} + 7 R{3,4} + 7 R{3,5} + 7 R{3,8} + 7 R{3,9}
   <= 7
 R2_72: <= 0
 R2_73: <= 0
 R2_74: 5 R{5,1} + 5 R{5,6} <= 5
 R2_75: 8 R{6,1} + 8 R{6,2} + 8 R{6,3} + 8 R{6,4} + 8 R{6,5} + 8 R{6,6}
   + 8 R{6,8} + 8 R{6,9} + 8 R{6,13} <= 8
 R2_76: 12 R{2,4} + 12 R{2,5} + 12 R{2,6} + 12 R{2,7} + 12 R{2,9}
   + 12 R{2,10} + 12 R{3,4} + 12 R{3,6} + 12 R{5,1} + 12 R{5,2} + 12 R{5,3}
   + 12 R{5,5} + 12 R{5,7} <= 12
 R2_77: 7 R{0,5} + 7 R{0,6} + 7 R{0,15} + 7 R{1,2} + 7 R{2,4} + 7 R{2,5}
   + 7 R{2,6} + 7 R{3,2} + 7 R{3,6} + 7 R{3,7} + 7 R{5,2} + 7 R{5,3}
   + 7 R{5,5} + 7 R{5,7} + 7 R{6,3} + 7 R{6,6} + 7 R{6,8} + 7 R{6,9}
   + 7 R{6,10} + 7 R{6,12} + 7 R{6,13} + 7 R{6,14} <= 7
Bounds
End
